# FreeDTS input deck (auto-generated by curvo) — STUB, not run this sprint
# case: epsin_ccs_highTension
Integrator = MC
Temperature = 1.0                       # reduced units (kBT)
Box = 60 60 60
Kappa = 54.000    # kBT (coat-stiffened)
Tension_Frame = ConstantTension
Sigma = 0.0300         # kBT/nm^2
# Vertex inclusions represent the active players:
Inclusion_C0 = 0.0585               # effective spontaneous curvature (nm^-1)
Inclusion_Coverage = fromProposal
Nsteps = 500000
Readout = mean_curvature_field, dome_omega_OP, neck_radius
# Reverse seam: TS2CG backmap of the resulting shape to CG-MD is available.
